graphs/queen9_9.col
p edge 81 1056
e 1 2
e 1 3
e 1 4
e 1 5
e 1 6
e 1 7
e 1 8
e 1 9
e 1 10
e 1 11
e 1 19
e 1 21
e 1 28
e 1 31
e 1 37
e 1 41
e 1 46
e 1 51
e 1 55
e 1 61
e 1 64
e 1 71
e 1 73
e 1 81
e 2 3
e 2 4
e 2 5
e 2 6
e 2 7
e 2 8
e 2 9
e 2 10
e 2 11
e 2 12
e 2 20
e 2 22
e 2 29
e 2 32
e 2 38
e 2 42
e 2 47
e 2 52
e 2 56
e 2 62
e 2 65
e 2 72
e 2 74
e 3 4
e 3 5
e 3 6
e 3 7
e 3 8
e 3 9
e 3 11
e 3 12
e 3 13
e 3 19
e 3 21
e 3 23
e 3 30
e 3 33
e 3 39
e 3 43
e 3 48
e 3 53
e 3 57
e 3 63
e 3 66
e 3 75
e 4 5
e 4 6
e 4 7
e 4 8
e 4 9
e 4 12
e 4 13
e 4 14
e 4 20
e 4 22
e 4 24
e 4 28
e 4 31
e 4 34
e 4 40
e 4 44
e 4 49
e 4 54
e 4 58
e 4 67
e 4 76
e 5 6
e 5 7
e 5 8
e 5 9
e 5 13
e 5 14
e 5 15
e 5 21
e 5 23
e 5 25
e 5 29
e 5 32
e 5 35
e 5 37
e 5 41
e 5 45
e 5 50
e 5 59
e 5 68
e 5 77
e 6 7
e 6 8
e 6 9
e 6 14
e 6 15
e 6 16
e 6 22
e 6 24
e 6 26
e 6 30
e 6 33
e 6 36
e 6 38
e 6 42
e 6 46
e 6 51
e 6 60
e 6 69
e 6 78
e 7 8
e 7 9
e 7 15
e 7 16
e 7 17
e 7 23
e 7 25
e 7 27
e 7 31
e 7 34
e 7 39
e 7 43
e 7 47
e 7 52
e 7 55
e 7 61
e 7 70
e 7 79
e 8 9
e 8 16
e 8 17
e 8 18
e 8 24
e 8 26
e 8 32
e 8 35
e 8 40
e 8 44
e 8 48
e 8 53
e 8 56
e 8 62
e 8 64
e 8 71
e 8 80
e 9 17
e 9 18
e 9 25
e 9 27
e 9 33
e 9 36
e 9 41
e 9 45
e 9 49
e 9 54
e 9 57
e 9 63
e 9 65
e 9 72
e 9 73
e 9 81
e 10 11
e 10 12
e 10 13
e 10 14
e 10 15
e 10 16
e 10 17
e 10 18
e 10 19
e 10 20
e 10 28
e 10 30
e 10 37
e 10 40
e 10 46
e 10 50
e 10 55
e 10 60
e 10 64
e 10 70
e 10 73
e 10 80
e 11 12
e 11 13
e 11 14
e 11 15
e 11 16
e 11 17
e 11 18
e 11 19
e 11 20
e 11 21
e 11 29
e 11 31
e 11 38
e 11 41
e 11 47
e 11 51
e 11 56
e 11 61
e 11 65
e 11 71
e 11 74
e 11 81
e 12 13
e 12 14
e 12 15
e 12 16
e 12 17
e 12 18
e 12 20
e 12 21
e 12 22
e 12 28
e 12 30
e 12 32
e 12 39
e 12 42
e 12 48
e 12 52
e 12 57
e 12 62
e 12 66
e 12 72
e 12 75
e 13 14
e 13 15
e 13 16
e 13 17
e 13 18
e 13 21
e 13 22
e 13 23
e 13 29
e 13 31
e 13 33
e 13 37
e 13 40
e 13 43
e 13 49
e 13 53
e 13 58
e 13 63
e 13 67
e 13 76
e 14 15
e 14 16
e 14 17
e 14 18
e 14 22
e 14 23
e 14 24
e 14 30
e 14 32
e 14 34
e 14 38
e 14 41
e 14 44
e 14 46
e 14 50
e 14 54
e 14 59
e 14 68
e 14 77
e 15 16
e 15 17
e 15 18
e 15 23
e 15 24
e 15 25
e 15 31
e 15 33
e 15 35
e 15 39
e 15 42
e 15 45
e 15 47
e 15 51
e 15 55
e 15 60
e 15 69
e 15 78
e 16 17
e 16 18
e 16 24
e 16 25
e 16 26
e 16 32
e 16 34
e 16 36
e 16 40
e 16 43
e 16 48
e 16 52
e 16 56
e 16 61
e 16 64
e 16 70
e 16 79
e 17 18
e 17 25
e 17 26
e 17 27
e 17 33
e 17 35
e 17 41
e 17 44
e 17 49
e 17 53
e 17 57
e 17 62
e 17 65
e 17 71
e 17 73
e 17 80
e 18 26
e 18 27
e 18 34
e 18 36
e 18 42
e 18 45
e 18 50
e 18 54
e 18 58
e 18 63
e 18 66
e 18 72
e 18 74
e 18 81
e 19 20
e 19 21
e 19 22
e 19 23
e 19 24
e 19 25
e 19 26
e 19 27
e 19 28
e 19 29
e 19 37
e 19 39
e 19 46
e 19 49
e 19 55
e 19 59
e 19 64
e 19 69
e 19 73
e 19 79
e 20 21
e 20 22
e 20 23
e 20 24
e 20 25
e 20 26
e 20 27
e 20 28
e 20 29
e 20 30
e 20 38
e 20 40
e 20 47
e 20 50
e 20 56
e 20 60
e 20 65
e 20 70
e 20 74
e 20 80
e 21 22
e 21 23
e 21 24
e 21 25
e 21 26
e 21 27
e 21 29
e 21 30
e 21 31
e 21 37
e 21 39
e 21 41
e 21 48
e 21 51
e 21 57
e 21 61
e 21 66
e 21 71
e 21 75
e 21 81
e 22 23
e 22 24
e 22 25
e 22 26
e 22 27
e 22 30
e 22 31
e 22 32
e 22 38
e 22 40
e 22 42
e 22 46
e 22 49
e 22 52
e 22 58
e 22 62
e 22 67
e 22 72
e 22 76
e 23 24
e 23 25
e 23 26
e 23 27
e 23 31
e 23 32
e 23 33
e 23 39
e 23 41
e 23 43
e 23 47
e 23 50
e 23 53
e 23 55
e 23 59
e 23 63
e 23 68
e 23 77
e 24 25
e 24 26
e 24 27
e 24 32
e 24 33
e 24 34
e 24 40
e 24 42
e 24 44
e 24 48
e 24 51
e 24 54
e 24 56
e 24 60
e 24 64
e 24 69
e 24 78
e 25 26
e 25 27
e 25 33
e 25 34
e 25 35
e 25 41
e 25 43
e 25 45
e 25 49
e 25 52
e 25 57
e 25 61
e 25 65
e 25 70
e 25 73
e 25 79
e 26 27
e 26 34
e 26 35
e 26 36
e 26 42
e 26 44
e 26 50
e 26 53
e 26 58
e 26 62
e 26 66
e 26 71
e 26 74
e 26 80
e 27 35
e 27 36
e 27 43
e 27 45
e 27 51
e 27 54
e 27 59
e 27 63
e 27 67
e 27 72
e 27 75
e 27 81
e 28 29
e 28 30
e 28 31
e 28 32
e 28 33
e 28 34
e 28 35
e 28 36
e 28 37
e 28 38
e 28 46
e 28 48
e 28 55
e 28 58
e 28 64
e 28 68
e 28 73
e 28 78
e 29 30
e 29 31
e 29 32
e 29 33
e 29 34
e 29 35
e 29 36
e 29 37
e 29 38
e 29 39
e 29 47
e 29 49
e 29 56
e 29 59
e 29 65
e 29 69
e 29 74
e 29 79
e 30 31
e 30 32
e 30 33
e 30 34
e 30 35
e 30 36
e 30 38
e 30 39
e 30 40
e 30 46
e 30 48
e 30 50
e 30 57
e 30 60
e 30 66
e 30 70
e 30 75
e 30 80
e 31 32
e 31 33
e 31 34
e 31 35
e 31 36
e 31 39
e 31 40
e 31 41
e 31 47
e 31 49
e 31 51
e 31 55
e 31 58
e 31 61
e 31 67
e 31 71
e 31 76
e 31 81
e 32 33
e 32 34
e 32 35
e 32 36
e 32 40
e 32 41
e 32 42
e 32 48
e 32 50
e 32 52
e 32 56
e 32 59
e 32 62
e 32 64
e 32 68
e 32 72
e 32 77
e 33 34
e 33 35
e 33 36
e 33 41
e 33 42
e 33 43
e 33 49
e 33 51
e 33 53
e 33 57
e 33 60
e 33 63
e 33 65
e 33 69
e 33 73
e 33 78
e 34 35
e 34 36
e 34 42
e 34 43
e 34 44
e 34 50
e 34 52
e 34 54
e 34 58
e 34 61
e 34 66
e 34 70
e 34 74
e 34 79
e 35 36
e 35 43
e 35 44
e 35 45
e 35 51
e 35 53
e 35 59
e 35 62
e 35 67
e 35 71
e 35 75
e 35 80
e 36 44
e 36 45
e 36 52
e 36 54
e 36 60
e 36 63
e 36 68
e 36 72
e 36 76
e 36 81
e 37 38
e 37 39
e 37 40
e 37 41
e 37 42
e 37 43
e 37 44
e 37 45
e 37 46
e 37 47
e 37 55
e 37 57
e 37 64
e 37 67
e 37 73
e 37 77
e 38 39
e 38 40
e 38 41
e 38 42
e 38 43
e 38 44
e 38 45
e 38 46
e 38 47
e 38 48
e 38 56
e 38 58
e 38 65
e 38 68
e 38 74
e 38 78
e 39 40
e 39 41
e 39 42
e 39 43
e 39 44
e 39 45
e 39 47
e 39 48
e 39 49
e 39 55
e 39 57
e 39 59
e 39 66
e 39 69
e 39 75
e 39 79
e 40 41
e 40 42
e 40 43
e 40 44
e 40 45
e 40 48
e 40 49
e 40 50
e 40 56
e 40 58
e 40 60
e 40 64
e 40 67
e 40 70
e 40 76
e 40 80
e 41 42
e 41 43
e 41 44
e 41 45
e 41 49
e 41 50
e 41 51
e 41 57
e 41 59
e 41 61
e 41 65
e 41 68
e 41 71
e 41 73
e 41 77
e 41 81
e 42 43
e 42 44
e 42 45
e 42 50
e 42 51
e 42 52
e 42 58
e 42 60
e 42 62
e 42 66
e 42 69
e 42 72
e 42 74
e 42 78
e 43 44
e 43 45
e 43 51
e 43 52
e 43 53
e 43 59
e 43 61
e 43 63
e 43 67
e 43 70
e 43 75
e 43 79
e 44 45
e 44 52
e 44 53
e 44 54
e 44 60
e 44 62
e 44 68
e 44 71
e 44 76
e 44 80
e 45 53
e 45 54
e 45 61
e 45 63
e 45 69
e 45 72
e 45 77
e 45 81
e 46 47
e 46 48
e 46 49
e 46 50
e 46 51
e 46 52
e 46 53
e 46 54
e 46 55
e 46 56
e 46 64
e 46 66
e 46 73
e 46 76
e 47 48
e 47 49
e 47 50
e 47 51
e 47 52
e 47 53
e 47 54
e 47 55
e 47 56
e 47 57
e 47 65
e 47 67
e 47 74
e 47 77
e 48 49
e 48 50
e 48 51
e 48 52
e 48 53
e 48 54
e 48 56
e 48 57
e 48 58
e 48 64
e 48 66
e 48 68
e 48 75
e 48 78
e 49 50
e 49 51
e 49 52
e 49 53
e 49 54
e 49 57
e 49 58
e 49 59
e 49 65
e 49 67
e 49 69
e 49 73
e 49 76
e 49 79
e 50 51
e 50 52
e 50 53
e 50 54
e 50 58
e 50 59
e 50 60
e 50 66
e 50 68
e 50 70
e 50 74
e 50 77
e 50 80
e 51 52
e 51 53
e 51 54
e 51 59
e 51 60
e 51 61
e 51 67
e 51 69
e 51 71
e 51 75
e 51 78
e 51 81
e 52 53
e 52 54
e 52 60
e 52 61
e 52 62
e 52 68
e 52 70
e 52 72
e 52 76
e 52 79
e 53 54
e 53 61
e 53 62
e 53 63
e 53 69
e 53 71
e 53 77
e 53 80
e 54 62
e 54 63
e 54 70
e 54 72
e 54 78
e 54 81
e 55 56
e 55 57
e 55 58
e 55 59
e 55 60
e 55 61
e 55 62
e 55 63
e 55 64
e 55 65
e 55 73
e 55 75
e 56 57
e 56 58
e 56 59
e 56 60
e 56 61
e 56 62
e 56 63
e 56 64
e 56 65
e 56 66
e 56 74
e 56 76
e 57 58
e 57 59
e 57 60
e 57 61
e 57 62
e 57 63
e 57 65
e 57 66
e 57 67
e 57 73
e 57 75
e 57 77
e 58 59
e 58 60
e 58 61
e 58 62
e 58 63
e 58 66
e 58 67
e 58 68
e 58 74
e 58 76
e 58 78
e 59 60
e 59 61
e 59 62
e 59 63
e 59 67
e 59 68
e 59 69
e 59 75
e 59 77
e 59 79
e 60 61
e 60 62
e 60 63
e 60 68
e 60 69
e 60 70
e 60 76
e 60 78
e 60 80
e 61 62
e 61 63
e 61 69
e 61 70
e 61 71
e 61 77
e 61 79
e 61 81
e 62 63
e 62 70
e 62 71
e 62 72
e 62 78
e 62 80
e 63 71
e 63 72
e 63 79
e 63 81
e 64 65
e 64 66
e 64 67
e 64 68
e 64 69
e 64 70
e 64 71
e 64 72
e 64 73
e 64 74
e 65 66
e 65 67
e 65 68
e 65 69
e 65 70
e 65 71
e 65 72
e 65 73
e 65 74
e 65 75
e 66 67
e 66 68
e 66 69
e 66 70
e 66 71
e 66 72
e 66 74
e 66 75
e 66 76
e 67 68
e 67 69
e 67 70
e 67 71
e 67 72
e 67 75
e 67 76
e 67 77
e 68 69
e 68 70
e 68 71
e 68 72
e 68 76
e 68 77
e 68 78
e 69 70
e 69 71
e 69 72
e 69 77
e 69 78
e 69 79
e 70 71
e 70 72
e 70 78
e 70 79
e 70 80
e 71 72
e 71 79
e 71 80
e 71 81
e 72 80
e 72 81
e 73 74
e 73 75
e 73 76
e 73 77
e 73 78
e 73 79
e 73 80
e 73 81
e 74 75
e 74 76
e 74 77
e 74 78
e 74 79
e 74 80
e 74 81
e 75 76
e 75 77
e 75 78
e 75 79
e 75 80
e 75 81
e 76 77
e 76 78
e 76 79
e 76 80
e 76 81
e 77 78
e 77 79
e 77 80
e 77 81
e 78 79
e 78 80
e 78 81
e 79 80
e 79 81
e 80 81
